V_100_10.txt

VEHICLE     CAPACITY  LOCATIONS  CUSTOMER  OPTIONS  PRIORITIES  NUMTYPS
10		150		97		100		152		3		4

CUSTOMER  DEMAND
0	 18
1	 15
2	 18
3	 13
4	 13
5	 19
6	 19
7	 17
8	 12
9	 12
10	 12
11	 13
12	 19
13	 19
14	 10
15	 13
16	 18
17	 12
18	 18
19	 11
20	 18
21	 16
22	 16
23	 13
24	 14
25	 13
26	 19
27	 13
28	 14
29	 12
30	 19
31	 16
32	 18
33	 20
34	 10
35	 18
36	 17
37	 12
38	 12
39	 13
40	 17
41	 13
42	 18
43	 14
44	 12
45	 12
46	 10
47	 17
48	 20
49	 12
50	 20
51	 10
52	 20
53	 13
54	 20
55	 11
56	 18
57	 19
58	 13
59	 16
60	 12
61	 17
62	 15
63	 20
64	 15
65	 19
66	 15
67	 15
68	 16
69	 19
70	 12
71	 10
72	 12
73	 16
74	 11
75	 18
76	 16
77	 13
78	 14
79	 13
80	 16
81	 10
82	 10
83	 19
84	 10
85	 12
86	 11
87	 18
88	 14
89	 12
90	 12
91	 12
92	 16
93	 14
94	 10
95	 17
96	 11
97	 12
98	 12
99	 15

LOCATION  XCOORD  YCOORD  CAP  READY  DUE  TYP  SERVICETIME
0		38		29		-1		0		720	 0		0
1		16		36		-1		435		495		 2		6
2		44		50		-1		101		161		 2		6
3		16		36		-1		36		96		 2		6
4		47		20		-1		77		137		 2		6
5		16		2		-1		71		131		 2		6
6		4		47		-1		563		623		 2		6
7		39		18		-1		187		247		 2		6
8		8		14		-1		351		411		 2		6
9		38		26		-1		627		687		 2		6
10		16		40		-1		353		413		 2		6
11		50		33		-1		200		260		 2		6
12		32		35		-1		646		706		 2		6
13		28		49		-1		133		193		 2		6
14		5		44		-1		404		464		 2		6
15		21		46		-1		619		679		 2		6
16		22		7		-1		360		420		 2		6
17		45		30		-1		189		249		 2		6
18		46		34		-1		64		124		 2		6
19		38		34		-1		302		362		 2		6
20		1		10		-1		33		93		 2		6
21		29		17		-1		380		440		 2		6
22		47		3		-1		529		589		 2		6
23		33		21		-1		87		147		 2		6
24		32		48		-1		290		350		 2		6
25		49		10		-1		86		146		 2		6
26		17		25		-1		171		231		 2		6
27		38		5		-1		78		138		 2		6
28		47		7		-1		527		587		 2		6
29		48		34		-1		86		146		 2		6
30		18		30		-1		592		652		 2		6
31		17		7		-1		590		650		 2		6
32		27		8		-1		320		380		 2		6
33		32		12		-1		545		605		 2		6
34		30		48		-1		598		658		 2		6
35		39		40		-1		356		416		 2		6
36		16		40		-1		584		644		 2		6
37		6		5		-1		394		454		 2		6
38		5		22		-1		213		273		 2		6
39		35		22		-1		308		368		 2		6
40		1		40		-1		400		460		 2		6
41		9		22		-1		401		461		 2		6
42		25		35		-1		57		117		 2		6
43		33		9		-1		452		512		 2		6
44		39		28		-1		415		475		 2		6
45		6		33		-1		352		412		 2		6
46		50		26		-1		556		616		 2		6
47		6		26		-1		170		230		 2		6
48		4		29		-1		657		717		 2		6
49		37		45		-1		376		436		 2		6
50		20		43		-1		91		151		 2		6
51		41		23		-1		385		445		 2		6
52		3		3		-1		241		301		 2		6
53		40		6		-1		207		267		 2		6
54		27		41		-1		630		690		 2		6
55		39		31		-1		580		640		 2		6
56		26		27		-1		304		364		 2		6
57		29		40		-1		589		649		 2		6
58		3		9		-1		463		523		 2		6
59		39		36		-1		572		632		 2		6
60		28		23		-1		248		308		 2		6
61		13		27		-1		592		652		 2		6
62		8		48		-1		409		469		 2		6
63		42		26		-1		524		584		 2		6
64		1		24		-1		73		133		 2		6
65		14		16		-1		420		480		 2		6
66		9		46		-1		581		641		 2		6
67		12		2		-1		53		113		 2		6
68		1		47		-1		350		410		 2		6
69		43		15		-1		387		447		 2		6
70		22		5		-1		307		367		 2		6
71		25		15		-1		238		298		 2		6
72		14		4		-1		500		560		 2		6
73		34		23		-1		654		714		 2		6
74		36		31		-1		440		500		 2		6
75		11		27		-1		503		563		 2		6
76		45		6		-1		445		505		 2		6
77		39		24		4		65		305		 1		4
78		23		5		5		407		647		 1		4
79		13		30		3		38		278		 1		4
80		42		20		3		247		487		 1		4
81		21		38		5		414		654		 1		4
82		28		35		3		28		268		 1		4
83		6		35		4		427		667		 1		4
84		27		42		5		317		557		 1		4
85		9		44		5		163		403		 1		4
86		26		10		3		371		611		 1		4
87		41		15		5		425		665		 1		4
88		41		15		4		308		548		 1		4
89		30		23		3		310		550		 1		4
90		18		12		5		479		719		 1		4
91		20		12		4		47		287		 1		4
92		25		34		5		94		334		 1		4
93		35		39		5		156		396		 1		4
94		24		15		3		212		452		 1		4
95		12		21		4		45		285		 1		4
96		21		40		3		118		358		 1		4
OPTION  LOCATION  CUSTOMER  PRIO  SERVICETIME   COST
0		84		0		0		2		0
1		91		1		0		2		0
2		86		2		0		2		0
3		96		3		0		2		0
4		85		4		0		2		0
5		95		5		0		2		0
6		90		6		0		2		0
7		80		7		0		2		0
8		81		8		0		2		0
9		87		9		0		2		0
10		88		10		0		2		0
11		87		11		0		2		0
12		89		12		0		2		0
13		87		13		0		2		0
14		93		14		0		2		0
15		93		15		0		2		0
16		78		16		0		2		0
17		86		17		0		2		0
18		93		18		0		2		0
19		86		19		0		2		0
20		93		20		0		2		0
21		92		21		0		2		0
22		79		22		0		2		0
23		88		23		0		2		0
24		1		24		0		5		0
25		2		25		0		5		0
26		3		26		0		5		0
27		4		27		0		5		0
28		5		28		0		5		0
29		6		29		0		5		0
30		7		30		0		5		0
31		8		31		0		5		0
32		9		32		0		5		0
33		10		33		0		5		0
34		11		34		0		5		0
35		12		35		0		5		0
36		13		36		0		5		0
37		14		37		0		5		0
38		15		38		0		5		0
39		16		39		0		5		0
40		17		40		0		5		0
41		18		41		0		5		0
42		19		42		0		5		0
43		20		43		0		5		0
44		21		44		0		5		0
45		22		45		0		5		0
46		23		46		0		5		0
47		24		47		0		5		0
48		25		48		1		5		0
49		95		48		0		2		0
50		26		49		0		5		0
51		95		49		1		2		0
52		27		50		0		5		0
53		78		50		1		2		0
54		28		51		0		5		0
55		90		51		1		2		0
56		29		52		0		5		0
57		87		52		1		2		0
58		30		53		1		5		0
59		90		53		0		2		0
60		31		54		1		5		0
61		80		54		0		2		0
62		32		55		1		5		0
63		80		55		0		2		0
64		33		56		1		5		0
65		89		56		0		2		0
66		34		57		0		5		0
67		81		57		1		2		0
68		35		58		0		5		0
69		92		58		1		2		0
70		36		59		1		5		0
71		79		59		0		2		0
72		37		60		1		5		0
73		90		60		0		2		0
74		38		61		1		5		0
75		91		61		0		2		0
76		39		62		0		5		0
77		91		62		1		2		0
78		40		63		0		5		0
79		82		63		1		2		0
80		41		64		1		5		0
81		83		64		0		2		0
82		42		65		1		5		0
83		82		65		0		2		0
84		43		66		0		5		0
85		88		66		1		2		0
86		44		67		1		5		0
87		82		67		0		2		0
88		45		68		1		5		0
89		79		68		0		2		0
90		46		69		1		5		0
91		87		69		0		2		0
92		47		70		1		5		0
93		90		70		0		2		0
94		48		71		0		5		0
95		77		71		1		2		0
96		49		72		0		5		0
97		96		72		1		2		0
98		50		73		1		5		0
99		95		73		0		2		0
100		51		74		0		5		0
101		88		74		1		2		0
102		52		75		1		5		0
103		78		75		0		2		0
104		53		76		0		5		0
105		86		76		1		2		0
106		54		77		0		5		0
107		82		77		1		2		0
108		55		78		0		5		0
109		89		78		1		2		0
110		56		79		1		5		0
111		92		79		0		2		0
112		57		80		1		5		0
113		92		80		0		2		0
114		58		81		0		5		0
115		87		81		1		2		0
116		59		82		0		5		0
117		77		82		1		2		0
118		60		83		1		5		0
119		92		83		0		2		0
120		61		84		0		5		0
121		81		84		1		2		0
122		62		85		1		5		0
123		82		85		0		2		0
124		63		86		1		5		0
125		93		86		0		2		0
126		64		87		0		5		0
127		83		87		1		2		0
128		65		88		1		5		0
129		77		88		0		2		0
130		66		89		0		5		0
131		83		89		1		2		0
132		67		90		0		5		0
133		81		90		1		2		0
134		68		91		1		5		0
135		77		91		0		2		0
136		69		92		0		5		0
137		81		92		1		2		0
138		70		93		1		5		0
139		91		93		0		2		0
140		71		94		0		5		0
141		88		94		1		2		0
142		72		95		1		5		0
143		78		95		0		2		0
144		73		96		1		5		0
145		77		96		0		2		0
146		74		97		1		5		0
147		92		97		0		2		0
148		75		98		1		5		0
149		95		98		0		2		0
150		76		99		0		5		0
151		93		99		1		2		0
